NAME : rnd37_50.tsp.tsp.opt.tour
TYPE : TOUR
DIMENSION : 50
TOUR_SECTION
1
47
27
43
7
49
44
5
37
23
8
11
12
39
3
33
50
26
28
41
36
38
46
6
30
40
19
16
29
45
21
2
4
22
42
10
20
13
32
31
35
24
34
48
14
17
15
25
18
9
-1